15
1 0 1
2 0 3
2 1 4
3 0 1
3 1 2
3 2 1
4 0 1
4 1 5
4 2 2
4 3 4
5 0 1
5 1 1
5 2 1
5 3 2
5 4 1
6 0 3
6 1 3
6 2 4
6 3 1
6 4 2
6 5 4
7 0 2
7 1 4
7 2 2
7 3 2
7 4 1
7 5 2
7 6 1
8 0 2
8 1 2
8 2 2
8 3 1
8 4 5
8 5 2
8 6 3
8 7 5
9 0 4
9 1 3
9 2 4
9 3 5
9 4 4
9 5 2
9 6 5
9 7 5
9 8 2
10 0 2
10 1 2
10 2 1
10 3 3
10 4 1
10 5 5
10 6 2
10 7 3
10 8 1
10 9 4
11 0 4
11 1 1
11 2 1
11 3 2
11 4 4
11 5 3
11 6 1
11 7 3
11 8 5
11 9 1
11 10 4
12 0 5
12 1 3
12 2 3
12 3 1
12 4 3
12 5 3
12 6 4
12 7 4
12 8 2
12 9 4
12 10 4
12 11 3
13 0 3
13 1 4
13 2 3
13 3 3
13 4 4
13 5 1
13 6 4
13 7 2
13 8 5
13 9 5
13 10 3
13 11 3
13 12 2
14 0 3
14 1 2
14 2 5
14 3 2
14 4 5
14 5 3
14 6 2
14 7 4
14 8 4
14 9 4
14 10 2
14 11 1
14 12 4
14 13 3
